c --- [ banner ] -------------------------------------------------------------
c 
c CaDiCaL Radically Simplified CDCL SAT Solver
c Copyright (c) 2016-2021 A. Biere, M. Fleury, N. Froleyks
c 
c Version 1.5.2 ca9bff05c11bde5eae4912f9932871d1527e61d8
c g++ (GCC) 9.3.0 -Wall -Wextra -O3 -DNDEBUG
c Thu Jul 28 23:42:48 EDT 2022 Linux gra-login3 3.10.0-1160.66.1.el7.x86_64 x86_64
c 
c --- [ limit ] --------------------------------------------------------------
c 
c setting conflict limit to 200000 conflicts (due to '200000')
c 
c --- [ parsing input ] ------------------------------------------------------
c 
c reading DIMACS file from '23.cubes683.adj'
c opening file to read '23.cubes683.adj'
c found 'p cnf 5320 914895' header
c parsed 914895 clauses in 8.27 seconds process time
c closing file '23.cubes683.adj'
c after reading 637830008 bytes 608.3 MB
c 
c --- [ options ] ------------------------------------------------------------
c 
c all options are set to their default value
c 
c --- [ solving ] ------------------------------------------------------------
c 
c time measured in process time since initialization
c 
c  seconds   reductions  redundant  irredundant
c          MB    restarts       trail      variables
c           level   conflicts       glue        remaining
c 
c *  8.27 632  0 0   0    0    0  0% 0 914847 2064 39%
c {  8.70 657  0 0   0    0    0  0% 0 914847 2064 39%
c i  9.95 701 569 0   3   30   28 35% 11 914847 2063 39%
c i 10.32 707 459 0   6   40   36 32% 18 914847 2061 39%
c i 10.40 708 427 0   8   45   40 31% 25 914847 2056 39%
c i 10.99 711 127 0  17  188  133 28% 20 914847 2046 38%
c i 11.05 711 114 0  17  214  146 28% 19 914847 2045 38%
c i 11.16 711 99 0  17  252  180 27% 18 914847 2044 38%
c i 11.18 711 95 0  17  266  191 27% 18 914847 2043 38%
c - 12.88 668 86 1  17  300  213 27% 17 248287 2043 38%
c i 13.04 668 81 1  17  323  223 27% 17 248287 2042 38%
c i 13.07 668 79 1  17  331  228 27% 17 248287 2041 38%
c i 13.07 668 79 1  17  333  229 27% 17 248287 2040 38%
c i 13.09 668 77 1  17  341  236 27% 17 248287 2039 38%
c i 13.72 669 71 1  28  448  307 26% 18 248287 1979 37%
c i 13.74 669 70 1  30  455  310 26% 17 248287 1960 37%
c i 14.24 670 66 1  41  518  357 26% 18 248287 1959 37%
c i 14.47 670 67 1  43  542  379 26% 18 248287 1958 37%
c i 14.49 670 67 1  43  543  379 26% 18 248287 1957 37%
c i 14.54 670 67 1  43  548  382 26% 18 248287 1955 37%
c 
c  seconds   reductions  redundant   irredundant
c          MB    restarts       trail       variables
c           level   conflicts       glue         remaining
c 
c i 14.79 671 66 1  51  590  419 26% 19 248287 1954 37%
c i 14.79 671 65 1  53  595  423 26% 19 248287 1953 37%
c i 14.82 671 65 1  55  604  429 26% 19 248287 1952 37%
c i 14.99 671 64 1  60  625  446 26% 19 248287 1951 37%
c i 15.98 672 66 1  91  756  556 26% 22 248287 1950 37%
c i 15.99 672 66 1  91  757  556 26% 21 248287 1949 37%
c i 16.27 672 66 1  99  785  579 26% 22 248287 1948 37%
c i 17.07 672 67 1 115  852  637 26% 23 248287 1945 37%
c i 17.62 672 67 1 127  897  678 26% 23 248287 1944 37%
c i 17.72 672 67 1 130  907  686 26% 23 248287 1943 37%
c i 17.85 672 67 1 134  942  716 26% 23 248287 1942 37%
c i 17.87 672 68 1 136  948  721 26% 23 248287 1941 36%
c i 18.11 672 68 1 143  983  749 26% 23 248287 1940 36%
c } 18.17 672 67 1 144 1001  767 26% 23 248287 1940 36%
c [ 18.17 672  0 1 144 1001  767  0% 0 248287 1940 36%
c O 18.17 672  2 1 144 1002  768 10% 1 248287 1940 36%
c i 18.22 672  3 1 144 1007  771 15% 3 248287 1938 36%
c i 18.37 672 18 1 144 1047  805 30% 14 248287 1937 36%
c i 18.43 672 19 1 144 1094  849 31% 15 248287 1936 36%
c i 18.43 672 18 1 144 1096  850 31% 14 248287 1935 36%
c 
c  seconds   reductions  redundant   irredundant
c          MB    restarts       trail       variables
c           level   conflicts       glue         remaining
c 
c i 18.44 672 18 1 144 1103  856 31% 15 248287 1934 36%
c i 18.44 672 18 1 144 1104  856 31% 14 248287 1933 36%
c i 18.45 672 18 1 144 1122  869 31% 14 248287 1932 36%
c - 18.96 744 18 2 144 1137  771 31% 15 246956 1932 36%
c i 19.15 744 18 2 144 1199  824 30% 15 246956 1931 36%
c i 19.25 744 20 2 144 1389  980 30% 17 246956 1930 36%
c i 19.44 744 20 2 144 1979 1435 31% 17 246956 1929 36%
c - 19.79 744 20 3 145 2390 1345 31% 17 246947 1929 36%
c i 20.03 744 20 3 145 2465 1399 53% 18 246947 1928 36%
c i 20.07 744 20 3 145 2573 1488 53% 17 246947 1927 36%
c i 20.08 744 20 3 145 2601 1508 53% 17 246947 1926 36%
c i 20.14 744 20 3 145 2796 1625 53% 17 246947 1925 36%
c ] 20.21 744 20 3 145 3001 1758 53% 17 246947 1925 36%
c { 20.21 744 67 3 145 3001 1758 72% 23 246947 1925 36%
c F 20.25 744 67 3 145 3004 1761 72% 23 246947 1925 36%
c i 20.39 744 66 3 145 3037 1791 71% 23 246947 1924 36%
c i 20.63 744 60 3 145 3174 1899 68% 22 246947 1923 36%
c i 21.12 744 56 3 166 3509 2141 63% 23 246947 1922 36%
c i 22.15 744 57 3 198 3637 2252 62% 24 246947 1921 36%
c i 22.42 744 58 3 212 3699 2306 61% 25 246947 1920 36%
c 
c  seconds   reductions  redundant   irredundant
c          MB    restarts       trail       variables
c           level   conflicts       glue         remaining
c 
c i 22.72 744 61 3 222 3736 2338 60% 26 246947 1919 36%
c i 22.98 744 60 3 226 3752 2352 60% 26 246947 1918 36%
c i 24.33 744 62 3 267 3952 2519 58% 26 246947 1917 36%
c - 25.10 742 63 4 292 4063 1878 58% 27 246911 1917 36%
c i 25.59 742 64 4 309 4141 1946 57% 27 246911 1916 36%
c i 26.69 742 66 4 347 4301 2075 56% 29 246911 1915 36%
c i 26.99 742 68 4 355 4338 2107 56% 29 246911 1914 36%
c i 27.77 742 69 4 380 4430 2195 55% 29 246911 1913 36%
c i 28.21 742 70 4 393 4498 2253 54% 30 246911 1912 36%
c i 28.27 742 70 4 395 4509 2262 54% 30 246911 1911 36%
c i 28.80 742 68 4 411 4680 2403 54% 30 246911 1910 36%
c i 28.89 742 68 4 411 4722 2444 54% 30 246911 1909 36%
c i 28.93 742 68 4 411 4747 2464 54% 29 246911 1908 36%
c i 29.12 742 68 4 416 4777 2492 54% 30 246911 1907 36%
c d 30.16 742 67 4 434 5002 2674 53% 29 223180 1899 36%
c 3 30.18 742 67 4 434 5002 3361 53% 29 223179 1899 36%
c d 30.31 742 67 4 434 5002 3412 53% 29 216557 1898 36%
c 2 30.33 742 67 4 434 5002 3409 53% 29 216556 1893 36%
c p 34.34 741 67 4 434 5002 6238 53% 29 216556 1840 35%
c d 34.66 741 67 4 434 5002 6071 53% 29 216377 1835 34%
c 
c  seconds   reductions  redundant   irredundant
c          MB    restarts       trail       variables
c           level   conflicts       glue         remaining
c 
c # 35.23 741 55 4 434 6006 6980 53% 26 216377 1835 34%
c - 35.59 722 54 5 434 6153 2806 53% 26 216377 1835 34%
c } 35.85 722 49 5 434 7003 3421 52% 25 216377 1835 34%
c [ 35.85 722 20 5 434 7003 3421 53% 17 216377 1835 34%
c - 36.43 648 24 6 435 8556 3055 52% 21 216377 1835 34%
c I 37.01 648 25 6 436 10007 4057 52% 21 216377 1835 34%
c - 38.38 722 25 7 438 11360 3325 51% 21 216377 1835 34%
c - 40.21 648 27 8 439 14564 3776 51% 22 216377 1835 34%
c ] 40.58 648 27 8 439 15003 4088 50% 22 216377 1835 34%
c { 40.58 648 49 8 439 15003 4088 52% 25 216377 1835 34%
c 2 40.63 648 49 8 439 15003 4901 52% 25 216375 1835 34%
c p 41.88 648 49 8 439 15003 7700 52% 25 216375 1835 34%
c B 42.03 648 49 8 439 15008 7705 52% 25 216375 1835 34%
c s 43.86 648 40 8 474 17584 9304 51% 22 214776 1835 34%
c v 47.31 648 40 8 474 17584 9304 51% 22 214749 1835 34%
c t 47.39 648 40 8 474 17584 9261 51% 22 214738 1835 34%
c e 48.08 648 40 8 474 17584 6911 51% 22 212563 738 14%
c s 48.18 648 40 8 474 17584 6911 51% 22 211707 738 14%
c - 49.57 648 38 9 474 18170 4589 71% 22 211707 738 14%
c W 51.04 648 34 9 478 21011 6662 71% 20 211707 738 14%
c 
c  seconds   reductions    redundant   irredundant
c          MB     restarts        trail       variables
c           level     conflicts       glue        remaining
c 
c - 52.19 649 33 10 520 22147 5088 70% 20 211707 738 14%
c - 53.09 649 28 11 552 26522 5097 70% 18 211707 738 14%
c F 53.34 649 27 11 558 28014 5922 70% 18 211707 738 14%
c 2 55.80 649 27 11 680 30003 7936 70% 18 211703 737 14%
c p 57.14 649 27 11 680 30003 10217 70% 18 211703 737 14%
c } 57.89 649 26 11 682 31003 10877 70% 17 211703 737 14%
c [ 57.89 649 27 11 682 31003 10877 132% 22 211703 737 14%
c - 58.13 649 27 12 682 31297 6066 130% 22 211703 737 14%
c B 60.92 648 23 12 685 36017 8584 109% 20 211703 737 14%
c - 61.24 649 24 13 685 36467 6270 107% 20 211703 737 14%
c - 62.71 649 28 14 689 42036 7322 97% 24 211703 737 14%
c W 64.45 649 29 14 689 45020 9444 93% 24 211703 737 14%
c - 65.34 649 29 15 690 48002 7605 90% 25 211703 737 14%
c p 66.89 649 29 15 690 50005 11514 89% 25 211703 737 14%
c s 67.30 649 29 15 690 50243 11662 89% 25 211002 737 14%
c v 69.81 649 29 15 690 50243 11662 89% 25 210936 737 14%
c t 69.92 649 29 15 690 50243 11643 89% 25 210936 737 14%
c s 70.74 649 29 15 690 50243 11643 89% 25 210269 737 14%
c - 72.89 649 32 16 691 54366 8248 86% 27 210269 737 14%
c O 73.16 649 33 16 691 55021 8710 86% 28 210269 737 14%
c 
c  seconds   reductions    redundant   irredundant
c          MB     restarts        trail       variables
c           level     conflicts       glue        remaining
c 
c - 75.09 649 32 17 696 61112 8077 83% 27 210269 737 14%
c ] 75.71 649 31 17 697 63004 9285 83% 27 210269 737 14%
c { 75.71 649 26 17 697 63004 9285 70% 17 210269 737 14%
c } 75.74 649 26 17 697 63075 9324 71% 17 210269 737 14%
c 1 75.74 649 26 17 697 63075 9324 71% 17 210269 737 14%
c 
c --- [ writing output ] -----------------------------------------------------
c 
c writing simplified CNF to DIMACS file 'simp/23.cubes683.adj.simp1'
c * 75.74 649 26 17 697 63075 9324 71% 17 210269 737 14%
c opening file to write 'simp/23.cubes683.adj.simp1'
c writing 'p cnf 5320 210269' header
c closing file 'simp/23.cubes683.adj.simp1'
c after writing 83225038 bytes 79.4 MB
c wrote 210269 clauses in 0.58 seconds process time
c 
c --- [ writing extension ] --------------------------------------------------
c 
c writing extension stack to 'simp/23.cubes683.adj.ext1'
c opening file to write 'simp/23.cubes683.adj.ext1'
c closing file 'simp/23.cubes683.adj.ext1'
c after writing 73933 bytes 0.1 MB
c wrote 3272 witnesses in 0.00 seconds process time
c 
c --- [ result ] -------------------------------------------------------------
c 
s SATISFIABLE
c 
c --- [ run-time profiling ] -------------------------------------------------
c 
c process time taken by individual solving procedures
c (percentage relative to process time for solving)
c 
c        49.44   73.27% search
c        29.53   43.77% unstable
c        18.38   27.25% stable
c        18.03   26.73% simplify
c         8.27   12.26% parse
c         7.63   11.31% probe
c         6.10    9.04% vivify
c         2.64    3.91% elim
c         1.09    1.62% walk
c         0.48    0.71% subsume
c         0.43    0.64% lucky
c         0.13    0.19% ternary
c   =================================
c        67.47   88.40% solve
c 
c last line shows process time for solving
c (percentage relative to total process time)
c 
c --- [ statistics ] ---------------------------------------------------------
c 
c chronological:             10670        16.92 %  of conflicts
c conflicts:                 63075       934.92    per second
c decisions:                123102      1824.66    per second
c eliminated:                 1097        20.62 %  of all variables
c fixed:                       634        11.92 %  of all variables
c learned:                   61844        98.05 %  per conflict
c learned_lits:           10616036       100.00 %  learned literals
c minimized:                     0         0.00 %  learned literals
c shrunken:                6380418        60.10 %  learned literals
c minishrunken:             865876         8.16 %  learned literals
c propagations:            4840252         0.07 M  per second
c reduced:                   32672        51.80 %  per conflict
c rephased:                     10      6307.50    interval
c restarts:                    697        90.49    interval
c stabilizing:                   3        66.59 %  of conflicts
c substituted:                  15         0.28 %  of all variables
c subsumed:                  23590         1.13 %  of all clauses
c strengthened:              12694         0.61 %  of all clauses
c ternary:                    2662         0.71 %  of resolved
c vivified:                    126         0.01 %  of all clauses
c walked:                        2     31537.50    interval
c weakened:                   2638         3.12    average size
c 
c seconds are measured in process time for solving
c 
c --- [ resources ] ----------------------------------------------------------
c 
c total process time since initialization:        76.32    seconds
c total real time since initialization:           76.49    seconds
c maximum resident set size of process:          839.73    MB
c 
c --- [ shutting down ] ------------------------------------------------------
c 
c exit 10
WARNING! DIMACS header mismatch: wrong number of variables.
============================[ Problem Statistics ]=============================
|                                                                             |
|  Number of variables:          2798                                         |
|  Number of clauses:          210277                                         |
|  Parse time:                   1.09 s                                       |
|  Simplification time:          0.02 s                                       |
|                                                                             |
============================[ Search Statistics ]====================================================
| Conflicts |          ORIGINAL         |          LEARNT          | Num Sols |      SUBGRAPHS      |
|           |    Vars  Clauses Literals |    Limit  Clauses Lit/Cl |          | Canonical Noncanon. |
=====================================================================================================
|       102 |    2717   210279 18291672 |     2000      102    147 |        0 |        13         2 |
|       267 |    2717   210294 18291869 |     2000      267    100 |        0 |        45        17 |
|       495 |    2717   210297 18291922 |     2000      495     95 |        0 |        56        20 |
|       849 |    2717   210314 18292399 |     2000      849     97 |        0 |        75        37 |
|      1362 |    2717   210321 18292799 |     2000     1362    107 |        0 |        85        44 |
|      2132 |    2717   210332 18293264 |     3600     1132     77 |        0 |       105        55 |
|      3317 |    2717   210378 18294680 |     3600     2317     88 |        0 |       121       101 |
|      5060 |    2717   210413 18295303 |     4999     2259     68 |        0 |       134       136 |
|      7703 |    2717   210494 18296978 |     4999     4902     78 |        0 |       178       217 |
|     11629 |    2717   210576 18299298 |     7551     3180     43 |        0 |       201       299 |
|     17490 |    2717   210671 18301341 |     8779     5269     57 |        0 |       238       394 |
|     26179 |    2717   210711 18302231 |     9993     9572     71 |        0 |       300       434 |
|     39252 |    2717   210810 18304204 |    12407    12059     64 |        0 |       408       533 |
|     58769 |    2717   210866 18305339 |    16003    11172     52 |        0 |       501       589 |
|     88055 |    2717   210960 18307624 |    19602    14657     57 |        0 |       585       683 |
|    132162 |    2717   211278 18314167 |    24414    15976     48 |        0 |       698      1001 |
|    199997 |    2717   213429 18345688 |    30422    16819     37 |        0 |       964      3152 |
|    300215 |    2717   215121 18376396 |    36415    35030     54 |        0 |      1174      4844 |
|    448372 |    2717   215489 18385660 |    44823    43195     60 |        0 |      1319      5212 |
|    731859 |    2717   277293 19357202 |    58015    47274     33 |        0 |      7599     67016 |
|   1068005 |    2717   280914 19428888 |    70013    66418     64 |        0 |      8350     70637 |
|   1582314 |    2717   296435 19807061 |    85618    78932     55 |        0 |      9863     86158 |
|   2888189 |    2717   854128 30668139 |   116812    77001     35 |        0 |     42589    643851 |
=====================================================================================================
Number of solutions   : 0
Canonical subgraphs   : 62352          (20 /sec)
          order  3    : 1              (200000 /sec)
          order  4    : 1              (500000 /sec)
          order  5    : 1              (200000 /sec)
          order  6    : 1              (52632 /sec)
          order  7    : 1              (8264 /sec)
          order  8    : 2              (1381 /sec)
          order  9    : 5              (282 /sec)
          order 10    : 12             (58 /sec)
          order 11    : 55             (18 /sec)
          order 12    : 331            (13 /sec)
          order 13    : 2830           (18 /sec)
          order 14    : 48207          (23 /sec)
          order 15    : 7199           (13 /sec)
          order 16    : 2636           (11 /sec)
          order 17    : 963            (9 /sec)
          order 18    : 107            (12 /sec)
          order 19    : 0              (-nan /sec)
          order 20    : 0              (-nan /sec)
          order 21    : 0              (-nan /sec)
Noncanonical subgraphs: 1139167        (156 /sec)
          order  3    : 0              (-nan /sec)
          order  4    : 0              (-nan /sec)
          order  5    : 0              (-nan /sec)
          order  6    : 0              (-nan /sec)
          order  7    : 0              (-nan /sec)
          order  8    : 0              (-nan /sec)
          order  9    : 0              (-nan /sec)
          order 10    : 0              (-nan /sec)
          order 11    : 0              (-nan /sec)
          order 12    : 0              (-nan /sec)
          order 13    : 7159           (6140 /sec)
          order 14    : 94737          (1117 /sec)
          order 15    : 1032656        (144 /sec)
          order 16    : 4592           (146 /sec)
          order 17    : 23             (29 /sec)
          order 18    : 0              (-nan /sec)
          order 19    : 0              (-nan /sec)
          order 20    : 0              (-nan /sec)
Canonicity checking   : 3154.69 s
Noncanonicity checking: 7281.88 s
Total canonicity time : 10436.6 s
database reductions   : 105
restarts              : 6142
conflicts             : 3510667        (302 /sec)
decisions             : 5254051        (0.00 % random) (452 /sec)
propagations          : 147494061      (12689 /sec)
conflict literals     : 226734394      (58.16 % deleted)
actual reward         : 0.245958
Memory used           : 434.00 MB
CPU time              : 11624.1 s

UNSATISFIABLE
